h -1 -2 3 -4 0
h 4 5 0
h -3 -4 0
h 2 -5 0
h -5 6 0
h -7 8 0
h -9 -10 -11 0
h 12 -13 0
h 14 15 -16 0
h 17 18 0
h 19 0
h -5 3 0
h -2 -20 0
h -18 -21 0
h 9 -22 0
h -5 -7 0
h 7 -18 0
h 23 0
h 24 25 0
h 24 -26 0
1 -24 0
h 27 6 0
h -2 1 0
h 27 28 0
1 -27 0
h 28 5 0
h 29 28 0
1 -29 0
h 30 31 0
h 32 33 -7 0
h 1 -34 0
h 35 26 -4 0
h 35 26 -3 0
1 -35 0
h 36 19 0
h 37 1 0
h 37 -25 0
h 10 0
h 37 -11 0
h 37 -26 0
h 37 -14 0
h 37 20 0
h 37 22 0
h 37 4 0
h 37 -18 0
h 38 13 0
h -28 2 0
h -28 -6 0
h 39 -2 18 0
h 40 -6 41 4 0
h 42 -43 0
h 44 25 -31 0
h 45 -46 0
h 47 34 -3 0
h 48 -2 4 0
1 -48 0
h 49 -6 -4 0
1 -49 0
